num_days = 3;
num_classes = 6;
num_courses = 3;
total_courses = 15;
num_common_courses = 3;

data = array2d(1..num_classes, 1..num_courses,
[
  1, 2, 3,
  4, 5, 6,
  1, 7, 8,
  9, 10, 11,
  12, 2, 13,
  14, 15, 3
]);

common_courses_count = array2d(1..num_common_courses, 1..2,
[
  1, 2,
  2, 2,
  3, 2
]);


preferences = array3d(1..num_classes, 1..num_courses, 1..3,
[
  % Class 1's preferences
  (day: 1, value: 3, course_id: 1), (day: 2, value: 2, course_id: 1), (day: 3, value: 1, course_id: 1),
  (day: 2, value: 3, course_id: 2), (day: 3, value: 2, course_id: 2), (day: 1, value: 1, course_id: 2),
  (day: 3, value: 3, course_id: 3), (day: 2, value: 2, course_id: 3), (day: 1, value: 1, course_id: 3),
  
  % Class 2's preferences
  (day: 2, value: 3, course_id: 4), (day: 3, value: 2, course_id: 4), (day: 1, value: 1, course_id: 4),
  (day: 3, value: 3, course_id: 5), (day: 1, value: 2, course_id: 5), (day: 2, value: 1, course_id: 5),
  (day: 1, value: 3, course_id: 6), (day: 2, value: 2, course_id: 6), (day: 3, value: 1, course_id: 6),
  
  % Class 3's preferences
  (day: 3, value: 3, course_id: 1), (day: 2, value: 2, course_id: 1), (day: 1, value: 1, course_id: 1),
  (day: 2, value: 3, course_id: 7), (day: 3, value: 2, course_id: 7), (day: 1, value: 1, course_id: 7),
  (day: 1, value: 3, course_id: 8), (day: 2, value: 2, course_id: 8), (day: 3, value: 1, course_id: 8),
  
  % Class 4's preferences
  (day: 1, value: 3, course_id: 9), (day: 3, value: 2, course_id: 9), (day: 2, value: 1, course_id: 9),
  (day: 3, value: 3, course_id: 10), (day: 2, value: 2, course_id: 10), (day: 1, value: 1, course_id: 10),
  (day: 2, value: 3, course_id: 11), (day: 3, value: 2, course_id: 11), (day: 1, value: 1, course_id: 11),
  
  % Class 5's preferences
  (day: 1, value: 3, course_id: 12), (day: 2, value: 2, course_id: 12), (day: 3, value: 1, course_id: 12),
  (day: 2, value: 3, course_id: 2), (day: 1, value: 2, course_id: 2), (day: 3, value: 1, course_id: 2),
  (day: 3, value: 3, course_id: 13), (day: 2, value: 2, course_id: 13), (day: 1, value: 1, course_id: 13),
  
  % Class 6's preferences
  (day: 2, value: 3, course_id: 14), (day: 3, value: 2, course_id: 14), (day: 1, value: 1, course_id: 14),
  (day: 3, value: 3, course_id: 15), (day: 1, value: 2, course_id: 15), (day: 2, value: 1, course_id: 15),
  (day: 1, value: 3, course_id: 1), (day: 3, value: 2, course_id: 1), (day: 2, value: 1, course_id: 1)
]
);